c 43_3_checker_6cl.cnf
c
c field = 43
c formula set type = 3_checker_6cl
c
p cnf 6 18
78 
80 
82 
-77 
-74 
-86 
79 
81 
83 
-76 
-75 
-87 
78 
80 
82 
-87 
-76 
-88 
79 
81 
83 
-86 
-77 
-89 
80 
82 
86 
-79 
-76 
-88 
81 
83 
87 
-78 
-77 
-89 
54 
114 
144 
-175 
-24 
-204 
55 
115 
145 
-174 
-25 
-205 
114 
144 
174 
-55 
-24 
-204 
115 
145 
175 
-54 
-25 
-205 
114 
144 
174 
-205 
-54 
-234 
115 
145 
175 
-204 
-55 
-235 
56 
112 
140 
-169 
-28 
-196 
57 
113 
141 
-168 
-29 
-197 
112 
140 
168 
-57 
-28 
-196 
113 
141 
169 
-56 
-29 
-197 
112 
140 
168 
-197 
-56 
-224 
113 
141 
169 
-196 
-57 
-225 
